language Essence 1.3

letting class be function(1 --> 1, 2 --> 5, 3 --> 1, 4 --> 1, 5 --> 3, 6 --> 3, 7 --> 4, 8 --> 2)
letting deck_length be 16
letting deck_width be 49
letting length be function(1 --> 16, 2 --> 15, 3 --> 10, 4 --> 4, 5 --> 7, 6 --> 11, 7 --> 5, 8 --> 14)
letting n_classes be 5
letting n_containers be 8
letting separation be function()
letting width be function(1 --> 14, 2 --> 1, 3 --> 1, 4 --> 1, 5 --> 1, 6 --> 1, 7 --> 3, 8 --> 32)
